%Data file
m = 4;
n= 3;
satisfaccion_minima = 10;

disponibles = array1d(0..m-1, [2,1,1,2]);
TipoJuguete = {Tipo1, Tipo2, Tipo3}; 
tipos = array1d(0..m-1,[Tipo1,Tipo1,Tipo2,Tipo3]);
satisfaccion = array2d(0..n-1, 0..m-1,[8, 9, 3, 1,
                  6, 4, 5, 3,
                  2, 2, 9, 9]);

 